original problem has 2480 variables (1225 bin, 0 int, 0 impl, 1255 cont) and 4926 constraints
1/1 feasible solution given by solution candidate storage, new primal bound -3.000000e+00

presolving:
(round 1, fast)       1 del vars, 1 del conss, 0 add conss, 1230 chg bounds, 0 chg sides, 0 chg coeffs, 0 upgd conss, 0 impls, 0 clqs
(round 2, fast)       3 del vars, 52 del conss, 0 add conss, 1321 chg bounds, 1224 chg sides, 1224 chg coeffs, 0 upgd conss, 48 impls, 0 clqs
   (0.0s) running MILP presolver
   (0.0s) MILP presolver (3 rounds): 90 aggregations, 46 fixings, 8 bound changes
(round 3, medium)     139 del vars, 53 del conss, 0 add conss, 1329 chg bounds, 1224 chg sides, 1224 chg coeffs, 0 upgd conss, 48 impls, 0 clqs
(round 4, fast)       145 del vars, 195 del conss, 0 add conss, 1329 chg bounds, 1224 chg sides, 1224 chg coeffs, 0 upgd conss, 54 impls, 0 clqs
(round 5, fast)       145 del vars, 195 del conss, 0 add conss, 1329 chg bounds, 1230 chg sides, 1224 chg coeffs, 0 upgd conss, 54 impls, 0 clqs
(round 6, exhaustive) 145 del vars, 246 del conss, 0 add conss, 1329 chg bounds, 1281 chg sides, 1224 chg coeffs, 0 upgd conss, 54 impls, 0 clqs
(round 7, exhaustive) 145 del vars, 246 del conss, 0 add conss, 1329 chg bounds, 1281 chg sides, 1224 chg coeffs, 24 upgd conss, 54 impls, 0 clqs
   (0.1s) probing: 53/1178 (4.5%) - 0 fixings, 1 aggregations, 145 implications, 0 bound changes
   (0.1s) probing aborted: 50/50 successive totally useless probings
presolving (8 rounds: 8 fast, 4 medium, 3 exhaustive):
 146 deleted vars, 246 deleted constraints, 0 added constraints, 1329 tightened bounds, 0 added holes, 1281 changed sides, 1224 changed coefficients
 102 implications, 48 cliques
presolved problem has 2334 variables (1177 bin, 0 int, 0 impl, 1157 cont) and 4680 constraints
   4656 constraints of type <linear>
     24 constraints of type <logicor>
transformed objective value is always integral (scale: 1)
Presolving Time: 0.08
transformed 1/1 original solutions to the transformed problem space

 time | node  | left  |LP iter|LP it/n|mem/heur|mdpt |vars |cons |rows |cuts |sepa|confs|strbr|  dualbound   | primalbound  |  gap   | compl. 
  0.1s|     1 |     0 |  1236 |     - |    24M |   0 |2334 |4680 |4680 |   0 |  0 |   0 |   0 |-2.259197e+01 |-3.000000e+00 | 653.07%| unknown
  0.1s|     1 |     2 |  1236 |     - |    24M |   0 |2334 |4680 |4680 |   0 |  1 |   0 |   0 |-2.259197e+01 |-3.000000e+00 | 653.07%| unknown

SCIP Status        : solving was interrupted [node limit reached]
Solving Time (sec) : 0.14
Solving Nodes      : 1
Primal Bound       : -3.00000000000000e+00 (2 solutions)
Dual Bound         : -2.25919716664908e+01
Gap                : 653.07 %
wrote problem to file /mnt/lscratch/users/dferrario/Adaptive-Cutsel-MILP/TransformedInstances/app1-1__trans__seed__1.mps
